# chon2017

3 atoms
4 atom types

 -100.000000000  100.000000000    xlo    xhi
 -100.000000000  100.000000000    ylo    yhi
 -100.000000000  100.000000000    zlo    zhi

Masses

       1   12.011000000  # C
       2    1.008000000  # H
       3   15.999000000  # O
       4   14.007000000  # N

Atoms

       1       3    0.000000000    0.000000000    0.000000000    0.117217408
       2       2    0.000000000   -0.000000000    0.751706054   -0.469869634
       3       2    0.000000000   -0.000000000   -0.751706054   -0.468869634

